nohup: ignoring input
Could not open configuration file.
java.io.FileNotFoundException: /home/citypulse/res/config.properties (No such file or directory)
Falling back to defaults.
Nov 04, 2015 10:29:10 AM org.insight_centre.urq.citypulse.wp5.request_handler.RHManager startRH
INFO: started org.insight_centre.urq.citypulse.wp5.request_handler.RHManager
Nov 04, 2015 10:29:10 AM org.glassfish.grizzly.http.server.NetworkListener start
INFO: Started listener bound to [0.0.0.0:8005]
Nov 04, 2015 10:29:10 AM org.glassfish.grizzly.http.server.HttpServer start
INFO: [HttpServer] Started.
Nov 04, 2015 10:29:10 AM org.glassfish.tyrus.server.Server start
INFO: WebSocket Registered apps: URLs all start with ws://localhost:8005
Nov 04, 2015 10:29:10 AM org.glassfish.tyrus.server.Server start
INFO: WebSocket server started.
Nov 04, 2015 10:29:42 AM org.insight_centre.urq.citypulse.wp5.request_handler.ReasoningRequestEndpoint onOpen
INFO: Connected ... fcb08daf-d317-46ba-8d40-75fd59ff1e03
{"arType":"PARKING_SPACES","functionalDetails":{"functionalConstraints":{"functionalConstraints":[{"name":"COST","operator":"LESS_THAN","value":"100"}]},"functionalParameters":{"functionalParameters":[{"name":"TIME_OF_STAY","value":"100"},{"name":"STARTING_DATETIME","value":"1446633408979"},{"name":"POINT_OF_INTEREST","value":"10.203921 56.162939"},{"name":"STARTING_POINT","value":"10.103644989430904 56.232567308059835"},{"name":"DISTANCE_RANGE","value":"1000"}]},"functionalPreferences":{"functionalPreferences":[{"operation":"MINIMIZE","value":"COST","order":1},{"operation":"MINIMIZE","value":"DISTANCE","order":2}]}},"user":{}}
FunctionalConstraintValueAdapter:100
FunctionalParameterValueAdapter: 100
FunctionalParameterValueAdapter: 1446633408979
FunctionalParameterValueAdapter: 10.203921 56.162939
FunctionalParameterValueAdapter: 10.103644989430904 56.232567308059835
FunctionalParameterValueAdapter: 1000
Nov 04, 2015 10:29:43 AM org.insight_centre.urq.citypulse.wp5.decision_support_system.DummyCoreEngine performReasoning
SEVERE: java.io.FileNotFoundException
Nov 04, 2015 10:29:43 AM it.unical.mat.embasp.clingo.ClingoHandler reason
INFO: program: :- violatedConstraint("COST").violatedConstraint("COST") :- valueOf("COST", AV), AV >= 100.:~ valueOf("COST", AV). [AV@1]:~ valueOf("DISTANCE", AV). [AV@2]parameter("TIME_OF_STAY","100").parameter("STARTING_DATETIME","1446633408979").parameter("POINT_OF_INTEREST","10.203921 56.162939").parameter("STARTING_POINT","10.103644989430904 56.232567308059835").parameter("DISTANCE_RANGE","1000").preference(1,"MINIMIZE","COST").preference(2,"MINIMIZE","DISTANCE").
Nov 04, 2015 10:29:43 AM it.unical.mat.embasp.clingo.ClingoHandler reason
INFO: Calling Clingo: clingo -n 0 --opt-mode=optN  -
Nov 04, 2015 10:29:43 AM it.unical.mat.embasp.clingo.ClingoHandler reason
INFO: Called Clingo
Nov 04, 2015 10:29:43 AM it.unical.mat.embasp.clingo.ClingoHandler reason
INFO: clingo version 4.5.0
Reading from -
Solving...
Answer: 1
parameter("TIME_OF_STAY","100") parameter("STARTING_DATETIME","1446633408979") parameter("POINT_OF_INTEREST","10.203921 56.162939") parameter("STARTING_POINT","10.103644989430904 56.232567308059835") parameter("DISTANCE_RANGE","1000") preference(1,"MINIMIZE","COST") preference(2,"MINIMIZE","DISTANCE")
SATISFIABLE

Models       : 1     
Calls        : 1
Time         : 0.004s (Solving: 0.00s 1st Model: 0.00s Unsat: 0.00s)
CPU Time     : 0.000s

Nov 04, 2015 10:29:43 AM it.unical.mat.embasp.clingo.ClingoHandler reason
SEVERE: -:1:61-80: info: atom does not occur in any rule head:
Nov 04, 2015 10:29:43 AM it.unical.mat.embasp.clingo.ClingoHandler reason
SEVERE:   valueOf("COST",AV)
Nov 04, 2015 10:29:43 AM it.unical.mat.embasp.clingo.ClingoHandler reason
SEVERE: 
Nov 04, 2015 10:29:43 AM it.unical.mat.embasp.clingo.ClingoHandler reason
SEVERE: -:1:95-114: info: atom does not occur in any rule head:
Nov 04, 2015 10:29:43 AM it.unical.mat.embasp.clingo.ClingoHandler reason
SEVERE:   valueOf("COST",AV)
Nov 04, 2015 10:29:43 AM it.unical.mat.embasp.clingo.ClingoHandler reason
SEVERE: 
Nov 04, 2015 10:29:43 AM it.unical.mat.embasp.clingo.ClingoHandler reason
SEVERE: -:1:125-148: info: atom does not occur in any rule head:
Nov 04, 2015 10:29:43 AM it.unical.mat.embasp.clingo.ClingoHandler reason
SEVERE:   valueOf("DISTANCE",AV)
Nov 04, 2015 10:29:43 AM it.unical.mat.embasp.clingo.ClingoHandler reason
SEVERE: 
Nov 04, 2015 10:29:43 AM org.insight_centre.urq.citypulse.wp5.decision_support_system.DummyCoreEngine performReasoning
INFO: Number of Answer Sets: 1
Nov 04, 2015 10:29:43 AM org.insight_centre.urq.citypulse.wp5.decision_support_system.DummyCoreEngine performReasoning
INFO: [parameter("TIME_OF_STAY","100"), parameter("STARTING_DATETIME","1446633408979"), parameter("POINT_OF_INTEREST","10.203921 56.162939"), parameter("STARTING_POINT","10.103644989430904 56.232567308059835"), parameter("DISTANCE_RANGE","1000"), preference(1,"MINIMIZE","COST"), preference(2,"MINIMIZE","DISTANCE")]
Nov 04, 2015 10:29:43 AM it.unical.mat.embasp.mapper.ASPMapper getObject
SEVERE: Class citypulse.commons.reasoning_request.functional_requirements.FunctionalParameter cannot be instantiated, probably the default constructor is missing
java.lang.InstantiationException: citypulse.commons.reasoning_request.functional_requirements.FunctionalParameter
	at java.lang.Class.newInstance(Class.java:427)
	at it.unical.mat.embasp.mapper.ASPMapper.getObject(ASPMapper.java:122)
	at it.unical.mat.embasp.base.AnswerSet.getAnswerObjects(AnswerSet.java:95)
	at org.insight_centre.urq.citypulse.wp5.decision_support_system.DummyCoreEngine.getAnswerParkingSpace(DummyCoreEngine.java:74)
	at org.insight_centre.urq.citypulse.wp5.decision_support_system.DummyCoreEngine.performReasoning(DummyCoreEngine.java:315)
	at org.insight_centre.urq.citypulse.wp5.decision_support_system.DSManager.startDSS(DSManager.java:130)
	at org.insight_centre.urq.citypulse.wp5.request_handler.ReasoningRequestEndpoint.onMessage(ReasoningRequestEndpoint.java:99)
	at sun.reflect.NativeMethodAccessorImpl.invoke0(Native Method)
	at sun.reflect.NativeMethodAccessorImpl.invoke(NativeMethodAccessorImpl.java:62)
	at sun.reflect.DelegatingMethodAccessorImpl.invoke(DelegatingMethodAccessorImpl.java:43)
	at java.lang.reflect.Method.invoke(Method.java:497)
	at org.glassfish.tyrus.core.AnnotatedEndpoint.callMethod(AnnotatedEndpoint.java:477)
	at org.glassfish.tyrus.core.AnnotatedEndpoint.access$100(AnnotatedEndpoint.java:87)
	at org.glassfish.tyrus.core.AnnotatedEndpoint$WholeHandler$1.onMessage(AnnotatedEndpoint.java:573)
	at org.glassfish.tyrus.core.TyrusSession.notifyMessageHandlers(TyrusSession.java:564)
	at org.glassfish.tyrus.core.TyrusEndpointWrapper.onMessage(TyrusEndpointWrapper.java:819)
	at org.glassfish.tyrus.core.TyrusWebSocket.onMessage(TyrusWebSocket.java:214)
	at org.glassfish.tyrus.core.frame.TextFrame.respond(TextFrame.java:135)
	at org.glassfish.tyrus.core.ProtocolHandler.process(ProtocolHandler.java:806)
	at org.glassfish.tyrus.core.TyrusWebSocketEngine$TyrusReadHandler.handle(TyrusWebSocketEngine.java:526)
	at org.glassfish.tyrus.container.grizzly.server.GrizzlyServerFilter$ProcessTask.execute(GrizzlyServerFilter.java:368)
	at org.glassfish.tyrus.container.grizzly.client.TaskProcessor.processTask(TaskProcessor.java:114)
	at org.glassfish.tyrus.container.grizzly.client.TaskProcessor.processTask(TaskProcessor.java:91)
	at org.glassfish.tyrus.container.grizzly.server.GrizzlyServerFilter.handleRead(GrizzlyServerFilter.java:210)
	at org.glassfish.grizzly.filterchain.ExecutorResolver$9.execute(ExecutorResolver.java:119)
	at org.glassfish.grizzly.filterchain.DefaultFilterChain.executeFilter(DefaultFilterChain.java:284)
	at org.glassfish.grizzly.filterchain.DefaultFilterChain.executeChainPart(DefaultFilterChain.java:201)
	at org.glassfish.grizzly.filterchain.DefaultFilterChain.execute(DefaultFilterChain.java:133)
	at org.glassfish.grizzly.filterchain.DefaultFilterChain.process(DefaultFilterChain.java:112)
	at org.glassfish.grizzly.ProcessorExecutor.execute(ProcessorExecutor.java:77)
	at org.glassfish.grizzly.nio.transport.TCPNIOTransport.fireIOEvent(TCPNIOTransport.java:561)
	at org.glassfish.grizzly.strategies.AbstractIOStrategy.fireIOEvent(AbstractIOStrategy.java:112)
	at org.glassfish.grizzly.strategies.WorkerThreadIOStrategy.run0(WorkerThreadIOStrategy.java:117)
	at org.glassfish.grizzly.strategies.WorkerThreadIOStrategy.access$100(WorkerThreadIOStrategy.java:56)
	at org.glassfish.grizzly.strategies.WorkerThreadIOStrategy$WorkerThreadRunnable.run(WorkerThreadIOStrategy.java:137)
	at org.glassfish.grizzly.threadpool.AbstractThreadPool$Worker.doWork(AbstractThreadPool.java:565)
	at org.glassfish.grizzly.threadpool.AbstractThreadPool$Worker.run(AbstractThreadPool.java:545)
	at java.lang.Thread.run(Thread.java:745)
Caused by: java.lang.NoSuchMethodException: citypulse.commons.reasoning_request.functional_requirements.FunctionalParameter.<init>()
	at java.lang.Class.getConstructor0(Class.java:3082)
	at java.lang.Class.newInstance(Class.java:412)
	... 37 more
Object not mapped: parameter("TIME_OF_STAY","100")
Nov 04, 2015 10:29:43 AM it.unical.mat.embasp.mapper.ASPMapper getObject
SEVERE: Class citypulse.commons.reasoning_request.functional_requirements.FunctionalParameter cannot be instantiated, probably the default constructor is missing
java.lang.InstantiationException: citypulse.commons.reasoning_request.functional_requirements.FunctionalParameter
	at java.lang.Class.newInstance(Class.java:427)
	at it.unical.mat.embasp.mapper.ASPMapper.getObject(ASPMapper.java:122)
	at it.unical.mat.embasp.base.AnswerSet.getAnswerObjects(AnswerSet.java:95)
	at org.insight_centre.urq.citypulse.wp5.decision_support_system.DummyCoreEngine.getAnswerParkingSpace(DummyCoreEngine.java:74)
	at org.insight_centre.urq.citypulse.wp5.decision_support_system.DummyCoreEngine.performReasoning(DummyCoreEngine.java:315)
	at org.insight_centre.urq.citypulse.wp5.decision_support_system.DSManager.startDSS(DSManager.java:130)
	at org.insight_centre.urq.citypulse.wp5.request_handler.ReasoningRequestEndpoint.onMessage(ReasoningRequestEndpoint.java:99)
	at sun.reflect.NativeMethodAccessorImpl.invoke0(Native Method)
	at sun.reflect.NativeMethodAccessorImpl.invoke(NativeMethodAccessorImpl.java:62)
	at sun.reflect.DelegatingMethodAccessorImpl.invoke(DelegatingMethodAccessorImpl.java:43)
	at java.lang.reflect.Method.invoke(Method.java:497)
	at org.glassfish.tyrus.core.AnnotatedEndpoint.callMethod(AnnotatedEndpoint.java:477)
	at org.glassfish.tyrus.core.AnnotatedEndpoint.access$100(AnnotatedEndpoint.java:87)
	at org.glassfish.tyrus.core.AnnotatedEndpoint$WholeHandler$1.onMessage(AnnotatedEndpoint.java:573)
	at org.glassfish.tyrus.core.TyrusSession.notifyMessageHandlers(TyrusSession.java:564)
	at org.glassfish.tyrus.core.TyrusEndpointWrapper.onMessage(TyrusEndpointWrapper.java:819)
	at org.glassfish.tyrus.core.TyrusWebSocket.onMessage(TyrusWebSocket.java:214)
	at org.glassfish.tyrus.core.frame.TextFrame.respond(TextFrame.java:135)
	at org.glassfish.tyrus.core.ProtocolHandler.process(ProtocolHandler.java:806)
	at org.glassfish.tyrus.core.TyrusWebSocketEngine$TyrusReadHandler.handle(TyrusWebSocketEngine.java:526)
	at org.glassfish.tyrus.container.grizzly.server.GrizzlyServerFilter$ProcessTask.execute(GrizzlyServerFilter.java:368)
	at org.glassfish.tyrus.container.grizzly.client.TaskProcessor.processTask(TaskProcessor.java:114)
	at org.glassfish.tyrus.container.grizzly.client.TaskProcessor.processTask(TaskProcessor.java:91)
	at org.glassfish.tyrus.container.grizzly.server.GrizzlyServerFilter.handleRead(GrizzlyServerFilter.java:210)
	at org.glassfish.grizzly.filterchain.ExecutorResolver$9.execute(ExecutorResolver.java:119)
	at org.glassfish.grizzly.filterchain.DefaultFilterChain.executeFilter(DefaultFilterChain.java:284)
	at org.glassfish.grizzly.filterchain.DefaultFilterChain.executeChainPart(DefaultFilterChain.java:201)
	at org.glassfish.grizzly.filterchain.DefaultFilterChain.execute(DefaultFilterChain.java:133)
	at org.glassfish.grizzly.filterchain.DefaultFilterChain.process(DefaultFilterChain.java:112)
	at org.glassfish.grizzly.ProcessorExecutor.execute(ProcessorExecutor.java:77)
	at org.glassfish.grizzly.nio.transport.TCPNIOTransport.fireIOEvent(TCPNIOTransport.java:561)
	at org.glassfish.grizzly.strategies.AbstractIOStrategy.fireIOEvent(AbstractIOStrategy.java:112)
	at org.glassfish.grizzly.strategies.WorkerThreadIOStrategy.run0(WorkerThreadIOStrategy.java:117)
	at org.glassfish.grizzly.strategies.WorkerThreadIOStrategy.access$100(WorkerThreadIOStrategy.java:56)
	at org.glassfish.grizzly.strategies.WorkerThreadIOStrategy$WorkerThreadRunnable.run(WorkerThreadIOStrategy.java:137)
	at org.glassfish.grizzly.threadpool.AbstractThreadPool$Worker.doWork(AbstractThreadPool.java:565)
	at org.glassfish.grizzly.threadpool.AbstractThreadPool$Worker.run(AbstractThreadPool.java:545)
	at java.lang.Thread.run(Thread.java:745)
Caused by: java.lang.NoSuchMethodException: citypulse.commons.reasoning_request.functional_requirements.FunctionalParameter.<init>()
	at java.lang.Class.getConstructor0(Class.java:3082)
	at java.lang.Class.newInstance(Class.java:412)
	... 37 more
Object not mapped: parameter("STARTING_DATETIME","1446633408979")
Nov 04, 2015 10:29:43 AM it.unical.mat.embasp.mapper.ASPMapper getObject
SEVERE: Class citypulse.commons.reasoning_request.functional_requirements.FunctionalParameter cannot be instantiated, probably the default constructor is missing
java.lang.InstantiationException: citypulse.commons.reasoning_request.functional_requirements.FunctionalParameter
	at java.lang.Class.newInstance(Class.java:427)
	at it.unical.mat.embasp.mapper.ASPMapper.getObject(ASPMapper.java:122)
	at it.unical.mat.embasp.base.AnswerSet.getAnswerObjects(AnswerSet.java:95)
	at org.insight_centre.urq.citypulse.wp5.decision_support_system.DummyCoreEngine.getAnswerParkingSpace(DummyCoreEngine.java:74)
	at org.insight_centre.urq.citypulse.wp5.decision_support_system.DummyCoreEngine.performReasoning(DummyCoreEngine.java:315)
	at org.insight_centre.urq.citypulse.wp5.decision_support_system.DSManager.startDSS(DSManager.java:130)
	at org.insight_centre.urq.citypulse.wp5.request_handler.ReasoningRequestEndpoint.onMessage(ReasoningRequestEndpoint.java:99)
	at sun.reflect.NativeMethodAccessorImpl.invoke0(Native Method)
	at sun.reflect.NativeMethodAccessorImpl.invoke(NativeMethodAccessorImpl.java:62)
	at sun.reflect.DelegatingMethodAccessorImpl.invoke(DelegatingMethodAccessorImpl.java:43)
	at java.lang.reflect.Method.invoke(Method.java:497)
	at org.glassfish.tyrus.core.AnnotatedEndpoint.callMethod(AnnotatedEndpoint.java:477)
	at org.glassfish.tyrus.core.AnnotatedEndpoint.access$100(AnnotatedEndpoint.java:87)
	at org.glassfish.tyrus.core.AnnotatedEndpoint$WholeHandler$1.onMessage(AnnotatedEndpoint.java:573)
	at org.glassfish.tyrus.core.TyrusSession.notifyMessageHandlers(TyrusSession.java:564)
	at org.glassfish.tyrus.core.TyrusEndpointWrapper.onMessage(TyrusEndpointWrapper.java:819)
	at org.glassfish.tyrus.core.TyrusWebSocket.onMessage(TyrusWebSocket.java:214)
	at org.glassfish.tyrus.core.frame.TextFrame.respond(TextFrame.java:135)
	at org.glassfish.tyrus.core.ProtocolHandler.process(ProtocolHandler.java:806)
	at org.glassfish.tyrus.core.TyrusWebSocketEngine$TyrusReadHandler.handle(TyrusWebSocketEngine.java:526)
	at org.glassfish.tyrus.container.grizzly.server.GrizzlyServerFilter$ProcessTask.execute(GrizzlyServerFilter.java:368)
	at org.glassfish.tyrus.container.grizzly.client.TaskProcessor.processTask(TaskProcessor.java:114)
	at org.glassfish.tyrus.container.grizzly.client.TaskProcessor.processTask(TaskProcessor.java:91)
	at org.glassfish.tyrus.container.grizzly.server.GrizzlyServerFilter.handleRead(GrizzlyServerFilter.java:210)
	at org.glassfish.grizzly.filterchain.ExecutorResolver$9.execute(ExecutorResolver.java:119)
	at org.glassfish.grizzly.filterchain.DefaultFilterChain.executeFilter(DefaultFilterChain.java:284)
	at org.glassfish.grizzly.filterchain.DefaultFilterChain.executeChainPart(DefaultFilterChain.java:201)
	at org.glassfish.grizzly.filterchain.DefaultFilterChain.execute(DefaultFilterChain.java:133)
	at org.glassfish.grizzly.filterchain.DefaultFilterChain.process(DefaultFilterChain.java:112)
	at org.glassfish.grizzly.ProcessorExecutor.execute(ProcessorExecutor.java:77)
	at org.glassfish.grizzly.nio.transport.TCPNIOTransport.fireIOEvent(TCPNIOTransport.java:561)
	at org.glassfish.grizzly.strategies.AbstractIOStrategy.fireIOEvent(AbstractIOStrategy.java:112)
	at org.glassfish.grizzly.strategies.WorkerThreadIOStrategy.run0(WorkerThreadIOStrategy.java:117)
	at org.glassfish.grizzly.strategies.WorkerThreadIOStrategy.access$100(WorkerThreadIOStrategy.java:56)
	at org.glassfish.grizzly.strategies.WorkerThreadIOStrategy$WorkerThreadRunnable.run(WorkerThreadIOStrategy.java:137)
	at org.glassfish.grizzly.threadpool.AbstractThreadPool$Worker.doWork(AbstractThreadPool.java:565)
	at org.glassfish.grizzly.threadpool.AbstractThreadPool$Worker.run(AbstractThreadPool.java:545)
	at java.lang.Thread.run(Thread.java:745)
Caused by: java.lang.NoSuchMethodException: citypulse.commons.reasoning_request.functional_requirements.FunctionalParameter.<init>()
	at java.lang.Class.getConstructor0(Class.java:3082)
	at java.lang.Class.newInstance(Class.java:412)
	... 37 more
Object not mapped: parameter("POINT_OF_INTEREST","10.203921 56.162939")
Nov 04, 2015 10:29:43 AM it.unical.mat.embasp.mapper.ASPMapper getObject
SEVERE: Class citypulse.commons.reasoning_request.functional_requirements.FunctionalParameter cannot be instantiated, probably the default constructor is missing
java.lang.InstantiationException: citypulse.commons.reasoning_request.functional_requirements.FunctionalParameter
	at java.lang.Class.newInstance(Class.java:427)
	at it.unical.mat.embasp.mapper.ASPMapper.getObject(ASPMapper.java:122)
	at it.unical.mat.embasp.base.AnswerSet.getAnswerObjects(AnswerSet.java:95)
	at org.insight_centre.urq.citypulse.wp5.decision_support_system.DummyCoreEngine.getAnswerParkingSpace(DummyCoreEngine.java:74)
	at org.insight_centre.urq.citypulse.wp5.decision_support_system.DummyCoreEngine.performReasoning(DummyCoreEngine.java:315)
	at org.insight_centre.urq.citypulse.wp5.decision_support_system.DSManager.startDSS(DSManager.java:130)
	at org.insight_centre.urq.citypulse.wp5.request_handler.ReasoningRequestEndpoint.onMessage(ReasoningRequestEndpoint.java:99)
	at sun.reflect.NativeMethodAccessorImpl.invoke0(Native Method)
	at sun.reflect.NativeMethodAccessorImpl.invoke(NativeMethodAccessorImpl.java:62)
	at sun.reflect.DelegatingMethodAccessorImpl.invoke(DelegatingMethodAccessorImpl.java:43)
	at java.lang.reflect.Method.invoke(Method.java:497)
	at org.glassfish.tyrus.core.AnnotatedEndpoint.callMethod(AnnotatedEndpoint.java:477)
	at org.glassfish.tyrus.core.AnnotatedEndpoint.access$100(AnnotatedEndpoint.java:87)
	at org.glassfish.tyrus.core.AnnotatedEndpoint$WholeHandler$1.onMessage(AnnotatedEndpoint.java:573)
	at org.glassfish.tyrus.core.TyrusSession.notifyMessageHandlers(TyrusSession.java:564)
	at org.glassfish.tyrus.core.TyrusEndpointWrapper.onMessage(TyrusEndpointWrapper.java:819)
	at org.glassfish.tyrus.core.TyrusWebSocket.onMessage(TyrusWebSocket.java:214)
	at org.glassfish.tyrus.core.frame.TextFrame.respond(TextFrame.java:135)
	at org.glassfish.tyrus.core.ProtocolHandler.process(ProtocolHandler.java:806)
	at org.glassfish.tyrus.core.TyrusWebSocketEngine$TyrusReadHandler.handle(TyrusWebSocketEngine.java:526)
	at org.glassfish.tyrus.container.grizzly.server.GrizzlyServerFilter$ProcessTask.execute(GrizzlyServerFilter.java:368)
	at org.glassfish.tyrus.container.grizzly.client.TaskProcessor.processTask(TaskProcessor.java:114)
	at org.glassfish.tyrus.container.grizzly.client.TaskProcessor.processTask(TaskProcessor.java:91)
	at org.glassfish.tyrus.container.grizzly.server.GrizzlyServerFilter.handleRead(GrizzlyServerFilter.java:210)
	at org.glassfish.grizzly.filterchain.ExecutorResolver$9.execute(ExecutorResolver.java:119)
	at org.glassfish.grizzly.filterchain.DefaultFilterChain.executeFilter(DefaultFilterChain.java:284)
	at org.glassfish.grizzly.filterchain.DefaultFilterChain.executeChainPart(DefaultFilterChain.java:201)
	at org.glassfish.grizzly.filterchain.DefaultFilterChain.execute(DefaultFilterChain.java:133)
	at org.glassfish.grizzly.filterchain.DefaultFilterChain.process(DefaultFilterChain.java:112)
	at org.glassfish.grizzly.ProcessorExecutor.execute(ProcessorExecutor.java:77)
	at org.glassfish.grizzly.nio.transport.TCPNIOTransport.fireIOEvent(TCPNIOTransport.java:561)
	at org.glassfish.grizzly.strategies.AbstractIOStrategy.fireIOEvent(AbstractIOStrategy.java:112)
	at org.glassfish.grizzly.strategies.WorkerThreadIOStrategy.run0(WorkerThreadIOStrategy.java:117)
	at org.glassfish.grizzly.strategies.WorkerThreadIOStrategy.access$100(WorkerThreadIOStrategy.java:56)
	at org.glassfish.grizzly.strategies.WorkerThreadIOStrategy$WorkerThreadRunnable.run(WorkerThreadIOStrategy.java:137)
	at org.glassfish.grizzly.threadpool.AbstractThreadPool$Worker.doWork(AbstractThreadPool.java:565)
	at org.glassfish.grizzly.threadpool.AbstractThreadPool$Worker.run(AbstractThreadPool.java:545)
	at java.lang.Thread.run(Thread.java:745)
Caused by: java.lang.NoSuchMethodException: citypulse.commons.reasoning_request.functional_requirements.FunctionalParameter.<init>()
	at java.lang.Class.getConstructor0(Class.java:3082)
	at java.lang.Class.newInstance(Class.java:412)
	... 37 more
Object not mapped: parameter("STARTING_POINT","10.103644989430904 56.232567308059835")
Nov 04, 2015 10:29:43 AM it.unical.mat.embasp.mapper.ASPMapper getObject
SEVERE: Class citypulse.commons.reasoning_request.functional_requirements.FunctionalParameter cannot be instantiated, probably the default constructor is missing
java.lang.InstantiationException: citypulse.commons.reasoning_request.functional_requirements.FunctionalParameter
	at java.lang.Class.newInstance(Class.java:427)
	at it.unical.mat.embasp.mapper.ASPMapper.getObject(ASPMapper.java:122)
	at it.unical.mat.embasp.base.AnswerSet.getAnswerObjects(AnswerSet.java:95)
	at org.insight_centre.urq.citypulse.wp5.decision_support_system.DummyCoreEngine.getAnswerParkingSpace(DummyCoreEngine.java:74)
	at org.insight_centre.urq.citypulse.wp5.decision_support_system.DummyCoreEngine.performReasoning(DummyCoreEngine.java:315)
	at org.insight_centre.urq.citypulse.wp5.decision_support_system.DSManager.startDSS(DSManager.java:130)
	at org.insight_centre.urq.citypulse.wp5.request_handler.ReasoningRequestEndpoint.onMessage(ReasoningRequestEndpoint.java:99)
	at sun.reflect.NativeMethodAccessorImpl.invoke0(Native Method)
	at sun.reflect.NativeMethodAccessorImpl.invoke(NativeMethodAccessorImpl.java:62)
	at sun.reflect.DelegatingMethodAccessorImpl.invoke(DelegatingMethodAccessorImpl.java:43)
	at java.lang.reflect.Method.invoke(Method.java:497)
	at org.glassfish.tyrus.core.AnnotatedEndpoint.callMethod(AnnotatedEndpoint.java:477)
	at org.glassfish.tyrus.core.AnnotatedEndpoint.access$100(AnnotatedEndpoint.java:87)
	at org.glassfish.tyrus.core.AnnotatedEndpoint$WholeHandler$1.onMessage(AnnotatedEndpoint.java:573)
	at org.glassfish.tyrus.core.TyrusSession.notifyMessageHandlers(TyrusSession.java:564)
	at org.glassfish.tyrus.core.TyrusEndpointWrapper.onMessage(TyrusEndpointWrapper.java:819)
	at org.glassfish.tyrus.core.TyrusWebSocket.onMessage(TyrusWebSocket.java:214)
	at org.glassfish.tyrus.core.frame.TextFrame.respond(TextFrame.java:135)
	at org.glassfish.tyrus.core.ProtocolHandler.process(ProtocolHandler.java:806)
	at org.glassfish.tyrus.core.TyrusWebSocketEngine$TyrusReadHandler.handle(TyrusWebSocketEngine.java:526)
	at org.glassfish.tyrus.container.grizzly.server.GrizzlyServerFilter$ProcessTask.execute(GrizzlyServerFilter.java:368)
	at org.glassfish.tyrus.container.grizzly.client.TaskProcessor.processTask(TaskProcessor.java:114)
	at org.glassfish.tyrus.container.grizzly.client.TaskProcessor.processTask(TaskProcessor.java:91)
	at org.glassfish.tyrus.container.grizzly.server.GrizzlyServerFilter.handleRead(GrizzlyServerFilter.java:210)
	at org.glassfish.grizzly.filterchain.ExecutorResolver$9.execute(ExecutorResolver.java:119)
	at org.glassfish.grizzly.filterchain.DefaultFilterChain.executeFilter(DefaultFilterChain.java:284)
	at org.glassfish.grizzly.filterchain.DefaultFilterChain.executeChainPart(DefaultFilterChain.java:201)
	at org.glassfish.grizzly.filterchain.DefaultFilterChain.execute(DefaultFilterChain.java:133)
	at org.glassfish.grizzly.filterchain.DefaultFilterChain.process(DefaultFilterChain.java:112)
	at org.glassfish.grizzly.ProcessorExecutor.execute(ProcessorExecutor.java:77)
	at org.glassfish.grizzly.nio.transport.TCPNIOTransport.fireIOEvent(TCPNIOTransport.java:561)
	at org.glassfish.grizzly.strategies.AbstractIOStrategy.fireIOEvent(AbstractIOStrategy.java:112)
	at org.glassfish.grizzly.strategies.WorkerThreadIOStrategy.run0(WorkerThreadIOStrategy.java:117)
	at org.glassfish.grizzly.strategies.WorkerThreadIOStrategy.access$100(WorkerThreadIOStrategy.java:56)
	at org.glassfish.grizzly.strategies.WorkerThreadIOStrategy$WorkerThreadRunnable.run(WorkerThreadIOStrategy.java:137)
	at org.glassfish.grizzly.threadpool.AbstractThreadPool$Worker.doWork(AbstractThreadPool.java:565)
	at org.glassfish.grizzly.threadpool.AbstractThreadPool$Worker.run(AbstractThreadPool.java:545)
	at java.lang.Thread.run(Thread.java:745)
Caused by: java.lang.NoSuchMethodException: citypulse.commons.reasoning_request.functional_requirements.FunctionalParameter.<init>()
	at java.lang.Class.getConstructor0(Class.java:3082)
	at java.lang.Class.newInstance(Class.java:412)
	... 37 more
Object not mapped: parameter("DISTANCE_RANGE","1000")
Nov 04, 2015 10:29:43 AM it.unical.mat.embasp.mapper.ASPMapper getObject
SEVERE: Class citypulse.commons.reasoning_request.functional_requirements.FunctionalPreference cannot be instantiated, probably the default constructor is missing
java.lang.InstantiationException: citypulse.commons.reasoning_request.functional_requirements.FunctionalPreference
	at java.lang.Class.newInstance(Class.java:427)
	at it.unical.mat.embasp.mapper.ASPMapper.getObject(ASPMapper.java:122)
	at it.unical.mat.embasp.base.AnswerSet.getAnswerObjects(AnswerSet.java:95)
	at org.insight_centre.urq.citypulse.wp5.decision_support_system.DummyCoreEngine.getAnswerParkingSpace(DummyCoreEngine.java:74)
	at org.insight_centre.urq.citypulse.wp5.decision_support_system.DummyCoreEngine.performReasoning(DummyCoreEngine.java:315)
	at org.insight_centre.urq.citypulse.wp5.decision_support_system.DSManager.startDSS(DSManager.java:130)
	at org.insight_centre.urq.citypulse.wp5.request_handler.ReasoningRequestEndpoint.onMessage(ReasoningRequestEndpoint.java:99)
	at sun.reflect.NativeMethodAccessorImpl.invoke0(Native Method)
	at sun.reflect.NativeMethodAccessorImpl.invoke(NativeMethodAccessorImpl.java:62)
	at sun.reflect.DelegatingMethodAccessorImpl.invoke(DelegatingMethodAccessorImpl.java:43)
	at java.lang.reflect.Method.invoke(Method.java:497)
	at org.glassfish.tyrus.core.AnnotatedEndpoint.callMethod(AnnotatedEndpoint.java:477)
	at org.glassfish.tyrus.core.AnnotatedEndpoint.access$100(AnnotatedEndpoint.java:87)
	at org.glassfish.tyrus.core.AnnotatedEndpoint$WholeHandler$1.onMessage(AnnotatedEndpoint.java:573)
	at org.glassfish.tyrus.core.TyrusSession.notifyMessageHandlers(TyrusSession.java:564)
	at org.glassfish.tyrus.core.TyrusEndpointWrapper.onMessage(TyrusEndpointWrapper.java:819)
	at org.glassfish.tyrus.core.TyrusWebSocket.onMessage(TyrusWebSocket.java:214)
	at org.glassfish.tyrus.core.frame.TextFrame.respond(TextFrame.java:135)
	at org.glassfish.tyrus.core.ProtocolHandler.process(ProtocolHandler.java:806)
	at org.glassfish.tyrus.core.TyrusWebSocketEngine$TyrusReadHandler.handle(TyrusWebSocketEngine.java:526)
	at org.glassfish.tyrus.container.grizzly.server.GrizzlyServerFilter$ProcessTask.execute(GrizzlyServerFilter.java:368)
	at org.glassfish.tyrus.container.grizzly.client.TaskProcessor.processTask(TaskProcessor.java:114)
	at org.glassfish.tyrus.container.grizzly.client.TaskProcessor.processTask(TaskProcessor.java:91)
	at org.glassfish.tyrus.container.grizzly.server.GrizzlyServerFilter.handleRead(GrizzlyServerFilter.java:210)
	at org.glassfish.grizzly.filterchain.ExecutorResolver$9.execute(ExecutorResolver.java:119)
	at org.glassfish.grizzly.filterchain.DefaultFilterChain.executeFilter(DefaultFilterChain.java:284)
	at org.glassfish.grizzly.filterchain.DefaultFilterChain.executeChainPart(DefaultFilterChain.java:201)
	at org.glassfish.grizzly.filterchain.DefaultFilterChain.execute(DefaultFilterChain.java:133)
	at org.glassfish.grizzly.filterchain.DefaultFilterChain.process(DefaultFilterChain.java:112)
	at org.glassfish.grizzly.ProcessorExecutor.execute(ProcessorExecutor.java:77)
	at org.glassfish.grizzly.nio.transport.TCPNIOTransport.fireIOEvent(TCPNIOTransport.java:561)
	at org.glassfish.grizzly.strategies.AbstractIOStrategy.fireIOEvent(AbstractIOStrategy.java:112)
	at org.glassfish.grizzly.strategies.WorkerThreadIOStrategy.run0(WorkerThreadIOStrategy.java:117)
	at org.glassfish.grizzly.strategies.WorkerThreadIOStrategy.access$100(WorkerThreadIOStrategy.java:56)
	at org.glassfish.grizzly.strategies.WorkerThreadIOStrategy$WorkerThreadRunnable.run(WorkerThreadIOStrategy.java:137)
	at org.glassfish.grizzly.threadpool.AbstractThreadPool$Worker.doWork(AbstractThreadPool.java:565)
	at org.glassfish.grizzly.threadpool.AbstractThreadPool$Worker.run(AbstractThreadPool.java:545)
	at java.lang.Thread.run(Thread.java:745)
Caused by: java.lang.NoSuchMethodException: citypulse.commons.reasoning_request.functional_requirements.FunctionalPreference.<init>()
	at java.lang.Class.getConstructor0(Class.java:3082)
	at java.lang.Class.newInstance(Class.java:412)
	... 37 more
Object not mapped: preference(1,"MINIMIZE","COST")
Nov 04, 2015 10:29:43 AM it.unical.mat.embasp.mapper.ASPMapper getObject
SEVERE: Class citypulse.commons.reasoning_request.functional_requirements.FunctionalPreference cannot be instantiated, probably the default constructor is missing
java.lang.InstantiationException: citypulse.commons.reasoning_request.functional_requirements.FunctionalPreference
	at java.lang.Class.newInstance(Class.java:427)
	at it.unical.mat.embasp.mapper.ASPMapper.getObject(ASPMapper.java:122)
	at it.unical.mat.embasp.base.AnswerSet.getAnswerObjects(AnswerSet.java:95)
	at org.insight_centre.urq.citypulse.wp5.decision_support_system.DummyCoreEngine.getAnswerParkingSpace(DummyCoreEngine.java:74)
	at org.insight_centre.urq.citypulse.wp5.decision_support_system.DummyCoreEngine.performReasoning(DummyCoreEngine.java:315)
	at org.insight_centre.urq.citypulse.wp5.decision_support_system.DSManager.startDSS(DSManager.java:130)
	at org.insight_centre.urq.citypulse.wp5.request_handler.ReasoningRequestEndpoint.onMessage(ReasoningRequestEndpoint.java:99)
	at sun.reflect.NativeMethodAccessorImpl.invoke0(Native Method)
	at sun.reflect.NativeMethodAccessorImpl.invoke(NativeMethodAccessorImpl.java:62)
	at sun.reflect.DelegatingMethodAccessorImpl.invoke(DelegatingMethodAccessorImpl.java:43)
	at java.lang.reflect.Method.invoke(Method.java:497)
	at org.glassfish.tyrus.core.AnnotatedEndpoint.callMethod(AnnotatedEndpoint.java:477)
	at org.glassfish.tyrus.core.AnnotatedEndpoint.access$100(AnnotatedEndpoint.java:87)
	at org.glassfish.tyrus.core.AnnotatedEndpoint$WholeHandler$1.onMessage(AnnotatedEndpoint.java:573)
	at org.glassfish.tyrus.core.TyrusSession.notifyMessageHandlers(TyrusSession.java:564)
	at org.glassfish.tyrus.core.TyrusEndpointWrapper.onMessage(TyrusEndpointWrapper.java:819)
	at org.glassfish.tyrus.core.TyrusWebSocket.onMessage(TyrusWebSocket.java:214)
	at org.glassfish.tyrus.core.frame.TextFrame.respond(TextFrame.java:135)
	at org.glassfish.tyrus.core.ProtocolHandler.process(ProtocolHandler.java:806)
	at org.glassfish.tyrus.core.TyrusWebSocketEngine$TyrusReadHandler.handle(TyrusWebSocketEngine.java:526)
	at org.glassfish.tyrus.container.grizzly.server.GrizzlyServerFilter$ProcessTask.execute(GrizzlyServerFilter.java:368)
	at org.glassfish.tyrus.container.grizzly.client.TaskProcessor.processTask(TaskProcessor.java:114)
	at org.glassfish.tyrus.container.grizzly.client.TaskProcessor.processTask(TaskProcessor.java:91)
	at org.glassfish.tyrus.container.grizzly.server.GrizzlyServerFilter.handleRead(GrizzlyServerFilter.java:210)
	at org.glassfish.grizzly.filterchain.ExecutorResolver$9.execute(ExecutorResolver.java:119)
	at org.glassfish.grizzly.filterchain.DefaultFilterChain.executeFilter(DefaultFilterChain.java:284)
	at org.glassfish.grizzly.filterchain.DefaultFilterChain.executeChainPart(DefaultFilterChain.java:201)
	at org.glassfish.grizzly.filterchain.DefaultFilterChain.execute(DefaultFilterChain.java:133)
	at org.glassfish.grizzly.filterchain.DefaultFilterChain.process(DefaultFilterChain.java:112)
	at org.glassfish.grizzly.ProcessorExecutor.execute(ProcessorExecutor.java:77)
	at org.glassfish.grizzly.nio.transport.TCPNIOTransport.fireIOEvent(TCPNIOTransport.java:561)
	at org.glassfish.grizzly.strategies.AbstractIOStrategy.fireIOEvent(AbstractIOStrategy.java:112)
	at org.glassfish.grizzly.strategies.WorkerThreadIOStrategy.run0(WorkerThreadIOStrategy.java:117)
	at org.glassfish.grizzly.strategies.WorkerThreadIOStrategy.access$100(WorkerThreadIOStrategy.java:56)
	at org.glassfish.grizzly.strategies.WorkerThreadIOStrategy$WorkerThreadRunnable.run(WorkerThreadIOStrategy.java:137)
	at org.glassfish.grizzly.threadpool.AbstractThreadPool$Worker.doWork(AbstractThreadPool.java:565)
	at org.glassfish.grizzly.threadpool.AbstractThreadPool$Worker.run(AbstractThreadPool.java:545)
	at java.lang.Thread.run(Thread.java:745)
Caused by: java.lang.NoSuchMethodException: citypulse.commons.reasoning_request.functional_requirements.FunctionalPreference.<init>()
	at java.lang.Class.getConstructor0(Class.java:3082)
	at java.lang.Class.newInstance(Class.java:412)
	... 37 more
Object not mapped: preference(2,"MINIMIZE","DISTANCE")
AnswerParkingSpaces [position=null, availablePS=0, walking_distance=0]
Nov 04, 2015 10:29:43 AM org.insight_centre.urq.citypulse.wp5.request_handler.ReasoningRequestEndpoint onClose
INFO: Session fcb08daf-d317-46ba-8d40-75fd59ff1e03 closed because of CloseReason[1000]
